out/bwp_3_6_1_lp.out
12
0 0    1 1
0 2    1 3
0 4    1 5
1 6    2 7
1 8    2 9
1 10    2 11
